52
29 28 260
28 15 201
15 49 130
49 19 35
19 22 94
22 30 152
30 17 80
17 21 116
21 31 97
31 48 50
48 34 85
34 35 15
35 38 43
38 39 43
39 37 35
37 36 43
36 33 76
33 43 80
43 45 131
45 47 125
47 23 16
23 4 32
4 14 25
14 5 40
5 24 124
24 27 329
27 26 110
26 25 126
25 46 186
46 12 324
12 13 206
13 51 319
51 10 399
10 50 285
50 11 188
11 3 294
3 42 245
42 32 365
32 9 501
9 8 83
8 7 183
7 40 64
40 18 92
18 44 75
44 2 220
2 16 217
16 20 253
20 41 290
41 6 76
6 1 45
1 52 187
52 29 480

